1000
750
600
599
599
599
597
597
597
597
594
594
593
592
592
590
590
589
588
588
586
586
586
585
585
585
584
582
582
581
580
579
579
579
578
576
576
575
573
573
572
572
571
570
570
570
570
570
569
568
568
568
567
567
567
566
565
565
562
560
560
560
559
559
558
557
557
557
557
555
555
554
554
554
554
553
552
552
551
551
551
550
549
549
549
549
548
547
547
546
546
546
545
544
543
543
543
543
542
542
542
541
541
541
541
540
540
539
539
537
537
535
534
534
534
533
532
532
532
531
530
530
529
529
529
529
528
527
527
526
524
524
524
524
524
523
522
522
520
520
519
518
517
517
516
516
516
516
515
515
515
515
514
514
514
513
513
512
512
512
512
512
510
510
509
508
508
508
506
506
506
505
505
504
504
504
504
504
502
502
502
502
501
501
501
501
501
501
499
498
498
498
498
496
496
496
496
495
495
495
494
493
493
492
492
490
490
489
488
487
486
485
485
485
485
485
484
483
483
483
483
481
481
481
481
480
479
479
479
478
478
476
474
472
472
472
471
471
471
471
471
470
470
470
469
469
469
469
468
468
467
467
467
467
463
462
462
460
458
456
456
455
455
454
453
453
453
452
452
452
451
451
450
449
449
449
448
447
446
446
445
445
444
444
444
443
443
443
442
442
441
440
440
440
439
439
439
438
438
437
437
436
435
435
435
434
434
433
433
432
432
432
432
431
430
430
429
429
429
429
428
428
427
427
426
425
424
423
422
420
419
419
419
418
418
417
416
416
415
415
415
415
415
415
415
414
414
414
413
412
412
412
411
411
410
409
409
409
408
408
407
407
407
406
405
405
404
404
404
403
402
401
401
401
401
401
400
400
399
399
398
397
393
392
392
391
391
390
390
389
389
389
389
386
385
385
385
384
383
383
383
382
382
381
380
378
378
377
377
377
376
376
375
374
374
374
373
372
372
372
371
370
370
370
370
369
369
369
367
366
364
364
364
363
363
363
363
362
361
360
360
360
359
358
358
357
357
356
356
355
354
354
353
353
352
352
352
351
350
349
349
349
349
349
348
348
348
348
348
348
347
347
347
347
346
344
344
344
343
342
342
340
340
340
340
340
339
337
337
336
335
335
335
332
332
331
331
331
331
330
330
329
328
327
327
327
327
327
326
326
326
325
324
323
323
323
323
322
322
322
320
319
319
319
318
317
317
317
317
317
316
316
316
315
315
315
315
314
313
313
313
313
311
310
310
310
307
307
307
306
306
305
305
305
304
304
304
304
303
302
302
301
301
301
301
300
299
299
298
298
298
298
297
297
297
297
297
296
296
295
295
294
294
293
292
292
292
291
290
290
290
289
289
289
288
288
287
286
286
285
285
285
283
283
283
281
281
280
280
280
280
280
279
279
279
279
278
277
277
277
276
276
276
275
274
274
274
273
273
272
272
272
270
269
268
268
267
267
267
267
266
266
265
265
265
264
264
264
263
262
262
262
261
260
260
260
259
258
258
257
257
257
257
256
254
254
253
253
253
253
251
251
249
248
248
248
246
246
245
245
245
244
244
242
241
241
240
240
239
239
237
237
237
237
237
236
236
234
233
233
232
232
230
229
229
229
228
228
228
228
228
227
227
227
226
226
225
225
224
224
224
223
222
221
221
220
220
220
218
218
217
217
216
216
215
215
214
214
214
213
213
213
212
211
210
208
207
206
205
205
205
204
204
204
204
204
203
202
202
201
201
201
201
201
200
199
198
198
196
196
196
195
195
195
195
195
195
195
195
194
194
194
193
193
193
193
192
192
191
191
191
190
189
189
189
187
187
186
185
184
184
183
182
181
181
180
179
179
179
179
178
177
176
176
174
174
173
173
172
171
171
171
169
169
167
167
166
165
165
165
165
164
164
164
162
161
158
157
157
156
155
154
153
152
152
151
151
150
149
149
148
147
147
147
146
146
145
145
145
144
144
143
143
143
142
140
139
139
139
138
138
137
136
135
135
134
134
134
133
133
132
132
132
132
131
130
129
129
126
125
125
125
123
122
122
122
122
122
122
121
121
121
121
121
120
120
120
119
117
117
117
116
115
115
115
115
114
114
114
112
112
112
112
112
112
111
111
110
110
109
109
109
109
109
108
107
107
106
106
105
105
103
101
101
101
100
100
99
99
99
98
97
97
97
96
96
95
95
94
94
93
93
93
93
92
92
91
91
90
90
90
90
90
89
88
88
87
85
85
85
84
84
84
84
84
82
82
82
81
81
80
80
78
77
77
77
77
76
76
76
75
75
